14
36
23
9
18
20
19
52
21
18
20
22
30
16
25
17
28
70
20
22
33
14
14
11
13
36
11
10
11
13
59
15
23
14
21
25
29
26
24
13
15
44
21
13
49
73
33
25
35
19
21
12
18
36
12
20
92
29
18
32
16
17
28
50
22
27
57
16
26
21
34
20
12
32
27
20
19
10
23
27
23
28
22
26
36
52
32
13
15
27
9
27
40
17
13
13
25
28
48
